* #variable= 50 #constraint= 3 
+1 x1 -1 x26 +2 x2 -2 x27 +4 x3 -4 x28 +8 x4 -8 x29 +16 x5 -16 x30 +32 x6 -32 x31 +64 x7 -64 x32 +128 x8 -128 x33 +256 x9 -256 x34 +512 x10 -512 x35 +1024 x11 -1024 x36 +2048 x12 -2048 x37 +4096 x13 -4096 x38 +8192 x14 -8192 x39 +16384 x15 -16384 x40 +32768 x16 -32768 x41 +65536 x17 -65536 x42 +131072 x18 -131072 x43 +262144 x19 -262144 x44 +524288 x20 -524288 x45 +1048576 x21 -1048576 x46 +2097152 x22 -2097152 x47 +4194304 x23 -4194304 x48 +8388608 x24 -8388608 x49 +16777216 x25 -16777216 x50 = 0 ;
-1 x13 -1 x38 >= -1; 
+1 x13 +1 x38 >= 1; 
